<?xml version = "1.0" encoding="UTF-8" standalone="yes"?>
<CPLEXSolution version="1.2">
 <header
   problemName="collapse_pyr_dfg__113_2.0.lp"
   solutionName="incumbent"
   solutionIndex="-1"
   objectiveValue="5"
   solutionTypeValue="3"
   solutionTypeString="primal"
   solutionStatusValue="101"
   solutionStatusString="integer optimal solution"
   solutionMethodString="mip"
   primalFeasible="1"
   dualFeasible="1"
   MIPNodes="0"
   MIPIterations="498"
   writeLevel="1"/>
 <quality
   epInt="1.0000000000000001e-05"
   epRHS="9.9999999999999995e-07"
   maxIntInfeas="0"
   maxPrimalInfeas="0"
   maxX="3"
   maxSlack="13"/>
 <linearConstraints>
  <constraint name="c1" index="0" slack="0"/>
  <constraint name="c2" index="1" slack="0"/>
  <constraint name="c3" index="2" slack="0"/>
  <constraint name="c4" index="3" slack="0"/>
  <constraint name="c5" index="4" slack="0"/>
  <constraint name="c6" index="5" slack="0"/>
  <constraint name="c7" index="6" slack="0"/>
  <constraint name="c8" index="7" slack="0"/>
  <constraint name="c9" index="8" slack="0"/>
  <constraint name="c10" index="9" slack="0"/>
  <constraint name="c11" index="10" slack="0"/>
  <constraint name="c12" index="11" slack="0"/>
  <constraint name="c13" index="12" slack="0"/>
  <constraint name="c14" index="13" slack="0"/>
  <constraint name="c15" index="14" slack="0"/>
  <constraint name="c16" index="15" slack="0"/>
  <constraint name="c17" index="16" slack="0"/>
  <constraint name="c18" index="17" slack="0"/>
  <constraint name="c19" index="18" slack="0"/>
  <constraint name="c20" index="19" slack="0"/>
  <constraint name="c21" index="20" slack="0"/>
  <constraint name="c22" index="21" slack="0"/>
  <constraint name="c23" index="22" slack="0"/>
  <constraint name="c24" index="23" slack="0"/>
  <constraint name="c25" index="24" slack="0"/>
  <constraint name="c26" index="25" slack="0"/>
  <constraint name="c27" index="26" slack="0"/>
  <constraint name="c28" index="27" slack="0"/>
  <constraint name="c29" index="28" slack="0"/>
  <constraint name="c30" index="29" slack="0"/>
  <constraint name="c31" index="30" slack="0"/>
  <constraint name="c32" index="31" slack="0"/>
  <constraint name="c33" index="32" slack="0"/>
  <constraint name="c34" index="33" slack="0"/>
  <constraint name="c35" index="34" slack="0"/>
  <constraint name="c36" index="35" slack="0"/>
  <constraint name="c37" index="36" slack="0"/>
  <constraint name="c38" index="37" slack="0"/>
  <constraint name="c39" index="38" slack="0"/>
  <constraint name="c40" index="39" slack="0"/>
  <constraint name="c41" index="40" slack="0"/>
  <constraint name="c42" index="41" slack="0"/>
  <constraint name="c43" index="42" slack="0"/>
  <constraint name="c44" index="43" slack="0"/>
  <constraint name="c45" index="44" slack="0"/>
  <constraint name="c46" index="45" slack="0"/>
  <constraint name="c47" index="46" slack="0"/>
  <constraint name="c48" index="47" slack="0"/>
  <constraint name="c49" index="48" slack="0"/>
  <constraint name="c50" index="49" slack="0"/>
  <constraint name="c51" index="50" slack="0"/>
  <constraint name="c52" index="51" slack="0"/>
  <constraint name="c53" index="52" slack="0"/>
  <constraint name="c54" index="53" slack="0"/>
  <constraint name="c55" index="54" slack="0"/>
  <constraint name="c56" index="55" slack="0"/>
  <constraint name="c57" index="56" slack="0"/>
  <constraint name="c58" index="57" slack="0"/>
  <constraint name="c59" index="58" slack="0"/>
  <constraint name="c60" index="59" slack="0"/>
  <constraint name="c61" index="60" slack="0"/>
  <constraint name="c62" index="61" slack="2"/>
  <constraint name="c63" index="62" slack="0"/>
  <constraint name="c64" index="63" slack="1"/>
  <constraint name="c65" index="64" slack="0"/>
  <constraint name="c66" index="65" slack="0"/>
  <constraint name="c67" index="66" slack="0"/>
  <constraint name="c68" index="67" slack="1"/>
  <constraint name="c69" index="68" slack="0"/>
  <constraint name="c70" index="69" slack="1"/>
  <constraint name="c71" index="70" slack="0"/>
  <constraint name="c72" index="71" slack="0"/>
  <constraint name="c73" index="72" slack="0"/>
  <constraint name="c74" index="73" slack="0"/>
  <constraint name="c75" index="74" slack="1"/>
  <constraint name="c76" index="75" slack="0"/>
  <constraint name="c77" index="76" slack="0"/>
  <constraint name="c78" index="77" slack="0"/>
  <constraint name="c79" index="78" slack="0"/>
  <constraint name="c80" index="79" slack="0"/>
  <constraint name="c81" index="80" slack="0"/>
  <constraint name="c82" index="81" slack="0"/>
  <constraint name="c83" index="82" slack="0"/>
  <constraint name="c84" index="83" slack="0"/>
  <constraint name="c85" index="84" slack="0"/>
  <constraint name="c86" index="85" slack="2"/>
  <constraint name="c87" index="86" slack="7"/>
  <constraint name="c88" index="87" slack="3"/>
  <constraint name="c89" index="88" slack="0"/>
  <constraint name="c90" index="89" slack="0"/>
  <constraint name="c91" index="90" slack="0"/>
  <constraint name="c92" index="91" slack="12"/>
  <constraint name="c93" index="92" slack="0"/>
  <constraint name="c94" index="93" slack="3"/>
  <constraint name="c95" index="94" slack="1"/>
  <constraint name="c96" index="95" slack="0"/>
  <constraint name="c97" index="96" slack="0"/>
  <constraint name="c98" index="97" slack="2"/>
  <constraint name="c99" index="98" slack="11"/>
  <constraint name="c100" index="99" slack="3"/>
  <constraint name="c101" index="100" slack="8"/>
  <constraint name="c102" index="101" slack="1"/>
  <constraint name="c103" index="102" slack="5"/>
  <constraint name="c104" index="103" slack="4"/>
  <constraint name="c105" index="104" slack="0"/>
  <constraint name="c106" index="105" slack="13"/>
  <constraint name="c107" index="106" slack="0"/>
  <constraint name="c108" index="107" slack="2"/>
  <constraint name="c109" index="108" slack="0"/>
  <constraint name="c110" index="109" slack="0"/>
  <constraint name="c111" index="110" slack="0"/>
  <constraint name="c112" index="111" slack="0"/>
  <constraint name="c113" index="112" slack="0"/>
  <constraint name="c114" index="113" slack="0"/>
  <constraint name="c115" index="114" slack="4"/>
  <constraint name="c116" index="115" slack="0"/>
  <constraint name="c117" index="116" slack="6"/>
  <constraint name="c118" index="117" slack="4"/>
  <constraint name="c119" index="118" slack="2"/>
  <constraint name="c120" index="119" slack="1"/>
  <constraint name="c121" index="120" slack="0"/>
  <constraint name="c122" index="121" slack="0"/>
  <constraint name="c123" index="122" slack="8"/>
  <constraint name="c124" index="123" slack="7"/>
  <constraint name="c125" index="124" slack="0"/>
  <constraint name="c126" index="125" slack="5"/>
  <constraint name="c127" index="126" slack="3"/>
  <constraint name="c128" index="127" slack="0"/>
  <constraint name="c129" index="128" slack="0"/>
  <constraint name="c130" index="129" slack="0"/>
  <constraint name="c131" index="130" slack="1"/>
  <constraint name="c132" index="131" slack="0"/>
  <constraint name="c133" index="132" slack="0"/>
  <constraint name="c134" index="133" slack="2"/>
  <constraint name="c135" index="134" slack="5"/>
  <constraint name="c136" index="135" slack="3"/>
  <constraint name="c137" index="136" slack="6"/>
  <constraint name="c138" index="137" slack="6"/>
  <constraint name="c139" index="138" slack="0"/>
  <constraint name="c140" index="139" slack="0"/>
  <constraint name="c141" index="140" slack="0"/>
  <constraint name="c142" index="141" slack="13"/>
  <constraint name="c143" index="142" slack="12"/>
  <constraint name="c144" index="143" slack="2"/>
  <constraint name="c145" index="144" slack="4"/>
  <constraint name="c146" index="145" slack="0"/>
  <constraint name="c147" index="146" slack="0"/>
  <constraint name="c148" index="147" slack="0"/>
  <constraint name="c149" index="148" slack="2"/>
  <constraint name="c150" index="149" slack="0"/>
  <constraint name="c151" index="150" slack="0"/>
  <constraint name="c152" index="151" slack="8"/>
  <constraint name="c153" index="152" slack="7"/>
  <constraint name="c154" index="153" slack="1"/>
  <constraint name="c155" index="154" slack="3"/>
  <constraint name="c156" index="155" slack="0"/>
 </linearConstraints>
 <variables>
  <variable name="M1" index="0" value="2"/>
  <variable name="M2" index="1" value="3"/>
  <variable name="x0,5" index="2" value="0"/>
  <variable name="x0,6" index="3" value="0"/>
  <variable name="x0,7" index="4" value="0"/>
  <variable name="x0,8" index="5" value="0"/>
  <variable name="x0,9" index="6" value="0"/>
  <variable name="x0,10" index="7" value="0"/>
  <variable name="x0,11" index="8" value="0"/>
  <variable name="x0,12" index="9" value="0"/>
  <variable name="x0,13" index="10" value="0"/>
  <variable name="x0,14" index="11" value="0"/>
  <variable name="x0,15" index="12" value="1"/>
  <variable name="x1,4" index="13" value="0"/>
  <variable name="x1,5" index="14" value="0"/>
  <variable name="x1,6" index="15" value="0"/>
  <variable name="x1,7" index="16" value="0"/>
  <variable name="x1,8" index="17" value="0"/>
  <variable name="x1,9" index="18" value="0"/>
  <variable name="x1,10" index="19" value="0"/>
  <variable name="x1,11" index="20" value="0"/>
  <variable name="x1,12" index="21" value="0"/>
  <variable name="x1,13" index="22" value="0"/>
  <variable name="x1,14" index="23" value="1"/>
  <variable name="x2,3" index="24" value="0"/>
  <variable name="x2,4" index="25" value="0"/>
  <variable name="x2,5" index="26" value="0"/>
  <variable name="x2,6" index="27" value="0"/>
  <variable name="x2,7" index="28" value="0"/>
  <variable name="x2,8" index="29" value="0"/>
  <variable name="x2,9" index="30" value="0"/>
  <variable name="x2,10" index="31" value="0"/>
  <variable name="x2,11" index="32" value="0"/>
  <variable name="x2,12" index="33" value="0"/>
  <variable name="x2,13" index="34" value="1"/>
  <variable name="x3,2" index="35" value="0"/>
  <variable name="x3,3" index="36" value="0"/>
  <variable name="x3,4" index="37" value="0"/>
  <variable name="x3,5" index="38" value="0"/>
  <variable name="x3,6" index="39" value="0"/>
  <variable name="x3,7" index="40" value="0"/>
  <variable name="x3,8" index="41" value="0"/>
  <variable name="x3,9" index="42" value="0"/>
  <variable name="x3,10" index="43" value="1"/>
  <variable name="x3,11" index="44" value="0"/>
  <variable name="x3,12" index="45" value="0"/>
  <variable name="x4,1" index="46" value="0"/>
  <variable name="x4,2" index="47" value="0"/>
  <variable name="x4,3" index="48" value="0"/>
  <variable name="x4,4" index="49" value="0"/>
  <variable name="x4,5" index="50" value="0"/>
  <variable name="x4,6" index="51" value="1"/>
  <variable name="x4,7" index="52" value="0"/>
  <variable name="x4,8" index="53" value="0"/>
  <variable name="x4,9" index="54" value="0"/>
  <variable name="x4,10" index="55" value="0"/>
  <variable name="x4,11" index="56" value="0"/>
  <variable name="x5,5" index="57" value="0"/>
  <variable name="x5,6" index="58" value="0"/>
  <variable name="x5,7" index="59" value="0"/>
  <variable name="x5,8" index="60" value="0"/>
  <variable name="x5,9" index="61" value="0"/>
  <variable name="x5,10" index="62" value="0"/>
  <variable name="x5,11" index="63" value="0"/>
  <variable name="x5,12" index="64" value="0"/>
  <variable name="x5,13" index="65" value="0"/>
  <variable name="x5,14" index="66" value="0"/>
  <variable name="x5,15" index="67" value="0"/>
  <variable name="x5,16" index="68" value="1"/>
  <variable name="x6,7" index="69" value="0"/>
  <variable name="x6,8" index="70" value="1"/>
  <variable name="x6,9" index="71" value="0"/>
  <variable name="x6,10" index="72" value="0"/>
  <variable name="x6,11" index="73" value="0"/>
  <variable name="x6,12" index="74" value="0"/>
  <variable name="x6,13" index="75" value="0"/>
  <variable name="x6,14" index="76" value="0"/>
  <variable name="x6,15" index="77" value="0"/>
  <variable name="x6,16" index="78" value="0"/>
  <variable name="x7,5" index="79" value="0"/>
  <variable name="x7,6" index="80" value="1"/>
  <variable name="x7,7" index="81" value="0"/>
  <variable name="x7,8" index="82" value="0"/>
  <variable name="x7,9" index="83" value="0"/>
  <variable name="x7,10" index="84" value="0"/>
  <variable name="x7,11" index="85" value="0"/>
  <variable name="x7,12" index="86" value="0"/>
  <variable name="x7,13" index="87" value="0"/>
  <variable name="x7,14" index="88" value="0"/>
  <variable name="x8,4" index="89" value="0"/>
  <variable name="x8,5" index="90" value="1"/>
  <variable name="x8,6" index="91" value="0"/>
  <variable name="x8,7" index="92" value="0"/>
  <variable name="x8,8" index="93" value="0"/>
  <variable name="x8,9" index="94" value="0"/>
  <variable name="x8,10" index="95" value="0"/>
  <variable name="x8,11" index="96" value="0"/>
  <variable name="x8,12" index="97" value="0"/>
  <variable name="x8,13" index="98" value="0"/>
  <variable name="x9,3" index="99" value="0"/>
  <variable name="x9,4" index="100" value="1"/>
  <variable name="x9,5" index="101" value="0"/>
  <variable name="x9,6" index="102" value="0"/>
  <variable name="x9,7" index="103" value="0"/>
  <variable name="x9,8" index="104" value="0"/>
  <variable name="x9,9" index="105" value="0"/>
  <variable name="x9,10" index="106" value="0"/>
  <variable name="x9,11" index="107" value="0"/>
  <variable name="x9,12" index="108" value="0"/>
  <variable name="x10,2" index="109" value="0"/>
  <variable name="x10,3" index="110" value="1"/>
  <variable name="x10,4" index="111" value="0"/>
  <variable name="x10,5" index="112" value="0"/>
  <variable name="x10,6" index="113" value="0"/>
  <variable name="x10,7" index="114" value="0"/>
  <variable name="x10,8" index="115" value="0"/>
  <variable name="x10,9" index="116" value="0"/>
  <variable name="x10,10" index="117" value="0"/>
  <variable name="x10,11" index="118" value="0"/>
  <variable name="x11,1" index="119" value="1"/>
  <variable name="x11,2" index="120" value="0"/>
  <variable name="x11,3" index="121" value="0"/>
  <variable name="x11,4" index="122" value="0"/>
  <variable name="x11,5" index="123" value="0"/>
  <variable name="x11,6" index="124" value="0"/>
  <variable name="x11,7" index="125" value="0"/>
  <variable name="x11,8" index="126" value="0"/>
  <variable name="x11,9" index="127" value="0"/>
  <variable name="x11,10" index="128" value="0"/>
  <variable name="x12,7" index="129" value="0"/>
  <variable name="x12,8" index="130" value="0"/>
  <variable name="x12,9" index="131" value="0"/>
  <variable name="x12,10" index="132" value="0"/>
  <variable name="x12,11" index="133" value="0"/>
  <variable name="x12,12" index="134" value="0"/>
  <variable name="x12,13" index="135" value="0"/>
  <variable name="x12,14" index="136" value="1"/>
  <variable name="x12,15" index="137" value="0"/>
  <variable name="x12,16" index="138" value="0"/>
  <variable name="x13,5" index="139" value="0"/>
  <variable name="x13,6" index="140" value="0"/>
  <variable name="x13,7" index="141" value="0"/>
  <variable name="x13,8" index="142" value="0"/>
  <variable name="x13,9" index="143" value="0"/>
  <variable name="x13,10" index="144" value="0"/>
  <variable name="x13,11" index="145" value="0"/>
  <variable name="x13,12" index="146" value="1"/>
  <variable name="x13,13" index="147" value="0"/>
  <variable name="x13,14" index="148" value="0"/>
  <variable name="x14,4" index="149" value="0"/>
  <variable name="x14,5" index="150" value="0"/>
  <variable name="x14,6" index="151" value="0"/>
  <variable name="x14,7" index="152" value="0"/>
  <variable name="x14,8" index="153" value="0"/>
  <variable name="x14,9" index="154" value="0"/>
  <variable name="x14,10" index="155" value="0"/>
  <variable name="x14,11" index="156" value="1"/>
  <variable name="x14,12" index="157" value="0"/>
  <variable name="x14,13" index="158" value="0"/>
  <variable name="x15,3" index="159" value="0"/>
  <variable name="x15,4" index="160" value="0"/>
  <variable name="x15,5" index="161" value="0"/>
  <variable name="x15,6" index="162" value="0"/>
  <variable name="x15,7" index="163" value="0"/>
  <variable name="x15,8" index="164" value="1"/>
  <variable name="x15,9" index="165" value="0"/>
  <variable name="x15,10" index="166" value="0"/>
  <variable name="x15,11" index="167" value="0"/>
  <variable name="x15,12" index="168" value="0"/>
  <variable name="x16,2" index="169" value="0"/>
  <variable name="x16,3" index="170" value="0"/>
  <variable name="x16,4" index="171" value="1"/>
  <variable name="x16,5" index="172" value="0"/>
  <variable name="x16,6" index="173" value="0"/>
  <variable name="x16,7" index="174" value="0"/>
  <variable name="x16,8" index="175" value="0"/>
  <variable name="x16,9" index="176" value="0"/>
  <variable name="x16,10" index="177" value="0"/>
  <variable name="x16,11" index="178" value="0"/>
  <variable name="x17,1" index="179" value="0"/>
  <variable name="x17,2" index="180" value="1"/>
  <variable name="x17,3" index="181" value="0"/>
  <variable name="x17,4" index="182" value="0"/>
  <variable name="x17,5" index="183" value="0"/>
  <variable name="x17,6" index="184" value="0"/>
  <variable name="x17,7" index="185" value="0"/>
  <variable name="x17,8" index="186" value="0"/>
  <variable name="x17,9" index="187" value="0"/>
  <variable name="x17,10" index="188" value="0"/>
  <variable name="x18,8" index="189" value="0"/>
  <variable name="x18,9" index="190" value="0"/>
  <variable name="x18,10" index="191" value="0"/>
  <variable name="x18,11" index="192" value="0"/>
  <variable name="x18,12" index="193" value="0"/>
  <variable name="x18,13" index="194" value="0"/>
  <variable name="x18,14" index="195" value="0"/>
  <variable name="x18,15" index="196" value="0"/>
  <variable name="x18,16" index="197" value="1"/>
  <variable name="x19,5" index="198" value="0"/>
  <variable name="x19,6" index="199" value="0"/>
  <variable name="x19,7" index="200" value="0"/>
  <variable name="x19,8" index="201" value="0"/>
  <variable name="x19,9" index="202" value="1"/>
  <variable name="x19,10" index="203" value="0"/>
  <variable name="x19,11" index="204" value="0"/>
  <variable name="x19,12" index="205" value="0"/>
  <variable name="x19,13" index="206" value="0"/>
  <variable name="x19,14" index="207" value="0"/>
  <variable name="x20,4" index="208" value="1"/>
  <variable name="x20,5" index="209" value="0"/>
  <variable name="x20,6" index="210" value="0"/>
  <variable name="x20,7" index="211" value="0"/>
  <variable name="x20,8" index="212" value="0"/>
  <variable name="x20,9" index="213" value="0"/>
  <variable name="x20,10" index="214" value="0"/>
  <variable name="x20,11" index="215" value="0"/>
  <variable name="x20,12" index="216" value="0"/>
  <variable name="x20,13" index="217" value="0"/>
  <variable name="x21,3" index="218" value="1"/>
  <variable name="x21,4" index="219" value="0"/>
  <variable name="x21,5" index="220" value="0"/>
  <variable name="x21,6" index="221" value="0"/>
  <variable name="x21,7" index="222" value="0"/>
  <variable name="x21,8" index="223" value="0"/>
  <variable name="x21,9" index="224" value="0"/>
  <variable name="x21,10" index="225" value="0"/>
  <variable name="x21,11" index="226" value="0"/>
  <variable name="x21,12" index="227" value="0"/>
  <variable name="x22,2" index="228" value="1"/>
  <variable name="x22,3" index="229" value="0"/>
  <variable name="x22,4" index="230" value="0"/>
  <variable name="x22,5" index="231" value="0"/>
  <variable name="x22,6" index="232" value="0"/>
  <variable name="x22,7" index="233" value="0"/>
  <variable name="x22,8" index="234" value="0"/>
  <variable name="x22,9" index="235" value="0"/>
  <variable name="x22,10" index="236" value="0"/>
  <variable name="x22,11" index="237" value="0"/>
  <variable name="x23,1" index="238" value="1"/>
  <variable name="x23,2" index="239" value="0"/>
  <variable name="x23,3" index="240" value="0"/>
  <variable name="x23,4" index="241" value="0"/>
  <variable name="x23,5" index="242" value="0"/>
  <variable name="x23,6" index="243" value="0"/>
  <variable name="x23,7" index="244" value="0"/>
  <variable name="x23,8" index="245" value="0"/>
  <variable name="x23,9" index="246" value="0"/>
  <variable name="x23,10" index="247" value="0"/>
  <variable name="x24,4" index="248" value="0"/>
  <variable name="x24,5" index="249" value="0"/>
  <variable name="x24,6" index="250" value="0"/>
  <variable name="x24,7" index="251" value="0"/>
  <variable name="x24,8" index="252" value="0"/>
  <variable name="x24,9" index="253" value="0"/>
  <variable name="x24,10" index="254" value="0"/>
  <variable name="x24,11" index="255" value="0"/>
  <variable name="x24,12" index="256" value="0"/>
  <variable name="x24,13" index="257" value="0"/>
  <variable name="x24,14" index="258" value="0"/>
  <variable name="x24,15" index="259" value="1"/>
  <variable name="x25,7" index="260" value="0"/>
  <variable name="x25,8" index="261" value="0"/>
  <variable name="x25,9" index="262" value="0"/>
  <variable name="x25,10" index="263" value="0"/>
  <variable name="x25,11" index="264" value="0"/>
  <variable name="x25,12" index="265" value="0"/>
  <variable name="x25,13" index="266" value="0"/>
  <variable name="x25,14" index="267" value="0"/>
  <variable name="x25,15" index="268" value="1"/>
  <variable name="x26,5" index="269" value="0"/>
  <variable name="x26,6" index="270" value="0"/>
  <variable name="x26,7" index="271" value="0"/>
  <variable name="x26,8" index="272" value="0"/>
  <variable name="x26,9" index="273" value="0"/>
  <variable name="x26,10" index="274" value="0"/>
  <variable name="x26,11" index="275" value="0"/>
  <variable name="x26,12" index="276" value="0"/>
  <variable name="x26,13" index="277" value="1"/>
  <variable name="x27,4" index="278" value="0"/>
  <variable name="x27,5" index="279" value="0"/>
  <variable name="x27,6" index="280" value="0"/>
  <variable name="x27,7" index="281" value="0"/>
  <variable name="x27,8" index="282" value="0"/>
  <variable name="x27,9" index="283" value="0"/>
  <variable name="x27,10" index="284" value="0"/>
  <variable name="x27,11" index="285" value="0"/>
  <variable name="x27,12" index="286" value="1"/>
  <variable name="x28,3" index="287" value="0"/>
  <variable name="x28,4" index="288" value="0"/>
  <variable name="x28,5" index="289" value="0"/>
  <variable name="x28,6" index="290" value="0"/>
  <variable name="x28,7" index="291" value="0"/>
  <variable name="x28,8" index="292" value="0"/>
  <variable name="x28,9" index="293" value="0"/>
  <variable name="x28,10" index="294" value="0"/>
  <variable name="x28,11" index="295" value="1"/>
  <variable name="x29,2" index="296" value="0"/>
  <variable name="x29,3" index="297" value="0"/>
  <variable name="x29,4" index="298" value="0"/>
  <variable name="x29,5" index="299" value="0"/>
  <variable name="x29,6" index="300" value="0"/>
  <variable name="x29,7" index="301" value="0"/>
  <variable name="x29,8" index="302" value="0"/>
  <variable name="x29,9" index="303" value="0"/>
  <variable name="x29,10" index="304" value="1"/>
  <variable name="x30,1" index="305" value="0"/>
  <variable name="x30,2" index="306" value="0"/>
  <variable name="x30,3" index="307" value="0"/>
  <variable name="x30,4" index="308" value="0"/>
  <variable name="x30,5" index="309" value="1"/>
  <variable name="x30,6" index="310" value="0"/>
  <variable name="x30,7" index="311" value="0"/>
  <variable name="x30,8" index="312" value="0"/>
  <variable name="x30,9" index="313" value="0"/>
  <variable name="x31,7" index="314" value="0"/>
  <variable name="x31,8" index="315" value="0"/>
  <variable name="x31,9" index="316" value="0"/>
  <variable name="x31,10" index="317" value="0"/>
  <variable name="x31,11" index="318" value="0"/>
  <variable name="x31,12" index="319" value="0"/>
  <variable name="x31,13" index="320" value="1"/>
  <variable name="x31,14" index="321" value="0"/>
  <variable name="x31,15" index="322" value="0"/>
  <variable name="x32,5" index="323" value="0"/>
  <variable name="x32,6" index="324" value="0"/>
  <variable name="x32,7" index="325" value="0"/>
  <variable name="x32,8" index="326" value="0"/>
  <variable name="x32,9" index="327" value="0"/>
  <variable name="x32,10" index="328" value="1"/>
  <variable name="x32,11" index="329" value="0"/>
  <variable name="x32,12" index="330" value="0"/>
  <variable name="x32,13" index="331" value="0"/>
  <variable name="x33,4" index="332" value="0"/>
  <variable name="x33,5" index="333" value="0"/>
  <variable name="x33,6" index="334" value="0"/>
  <variable name="x33,7" index="335" value="0"/>
  <variable name="x33,8" index="336" value="0"/>
  <variable name="x33,9" index="337" value="1"/>
  <variable name="x33,10" index="338" value="0"/>
  <variable name="x33,11" index="339" value="0"/>
  <variable name="x33,12" index="340" value="0"/>
  <variable name="x34,3" index="341" value="0"/>
  <variable name="x34,4" index="342" value="0"/>
  <variable name="x34,5" index="343" value="0"/>
  <variable name="x34,6" index="344" value="0"/>
  <variable name="x34,7" index="345" value="0"/>
  <variable name="x34,8" index="346" value="1"/>
  <variable name="x34,9" index="347" value="0"/>
  <variable name="x34,10" index="348" value="0"/>
  <variable name="x34,11" index="349" value="0"/>
  <variable name="x35,2" index="350" value="0"/>
  <variable name="x35,3" index="351" value="0"/>
  <variable name="x35,4" index="352" value="0"/>
  <variable name="x35,5" index="353" value="0"/>
  <variable name="x35,6" index="354" value="0"/>
  <variable name="x35,7" index="355" value="1"/>
  <variable name="x35,8" index="356" value="0"/>
  <variable name="x35,9" index="357" value="0"/>
  <variable name="x35,10" index="358" value="0"/>
  <variable name="x36,1" index="359" value="0"/>
  <variable name="x36,2" index="360" value="0"/>
  <variable name="x36,3" index="361" value="1"/>
  <variable name="x36,4" index="362" value="0"/>
  <variable name="x36,5" index="363" value="0"/>
  <variable name="x36,6" index="364" value="0"/>
  <variable name="x36,7" index="365" value="0"/>
  <variable name="x36,8" index="366" value="0"/>
  <variable name="x36,9" index="367" value="0"/>
  <variable name="x37,8" index="368" value="0"/>
  <variable name="x37,9" index="369" value="0"/>
  <variable name="x37,10" index="370" value="0"/>
  <variable name="x37,11" index="371" value="0"/>
  <variable name="x37,12" index="372" value="0"/>
  <variable name="x37,13" index="373" value="0"/>
  <variable name="x37,14" index="374" value="0"/>
  <variable name="x37,15" index="375" value="0"/>
  <variable name="x37,16" index="376" value="1"/>
  <variable name="x38,5" index="377" value="0"/>
  <variable name="x38,6" index="378" value="0"/>
  <variable name="x38,7" index="379" value="0"/>
  <variable name="x38,8" index="380" value="0"/>
  <variable name="x38,9" index="381" value="0"/>
  <variable name="x38,10" index="382" value="0"/>
  <variable name="x38,11" index="383" value="0"/>
  <variable name="x38,12" index="384" value="0"/>
  <variable name="x38,13" index="385" value="0"/>
  <variable name="x38,14" index="386" value="1"/>
  <variable name="x39,4" index="387" value="0"/>
  <variable name="x39,5" index="388" value="0"/>
  <variable name="x39,6" index="389" value="0"/>
  <variable name="x39,7" index="390" value="0"/>
  <variable name="x39,8" index="391" value="0"/>
  <variable name="x39,9" index="392" value="0"/>
  <variable name="x39,10" index="393" value="0"/>
  <variable name="x39,11" index="394" value="0"/>
  <variable name="x39,12" index="395" value="0"/>
  <variable name="x39,13" index="396" value="1"/>
  <variable name="x40,3" index="397" value="0"/>
  <variable name="x40,4" index="398" value="0"/>
  <variable name="x40,5" index="399" value="0"/>
  <variable name="x40,6" index="400" value="0"/>
  <variable name="x40,7" index="401" value="0"/>
  <variable name="x40,8" index="402" value="0"/>
  <variable name="x40,9" index="403" value="0"/>
  <variable name="x40,10" index="404" value="0"/>
  <variable name="x40,11" index="405" value="0"/>
  <variable name="x40,12" index="406" value="1"/>
  <variable name="x41,3" index="407" value="0"/>
  <variable name="x41,4" index="408" value="0"/>
  <variable name="x41,5" index="409" value="0"/>
  <variable name="x41,6" index="410" value="0"/>
  <variable name="x41,7" index="411" value="0"/>
  <variable name="x41,8" index="412" value="0"/>
  <variable name="x41,9" index="413" value="0"/>
  <variable name="x41,10" index="414" value="0"/>
  <variable name="x41,11" index="415" value="0"/>
  <variable name="x41,12" index="416" value="0"/>
  <variable name="x41,13" index="417" value="0"/>
  <variable name="x41,14" index="418" value="1"/>
  <variable name="x42,2" index="419" value="0"/>
  <variable name="x42,3" index="420" value="0"/>
  <variable name="x42,4" index="421" value="0"/>
  <variable name="x42,5" index="422" value="0"/>
  <variable name="x42,6" index="423" value="0"/>
  <variable name="x42,7" index="424" value="0"/>
  <variable name="x42,8" index="425" value="0"/>
  <variable name="x42,9" index="426" value="0"/>
  <variable name="x42,10" index="427" value="0"/>
  <variable name="x42,11" index="428" value="1"/>
  <variable name="x43,1" index="429" value="0"/>
  <variable name="x43,2" index="430" value="0"/>
  <variable name="x43,3" index="431" value="0"/>
  <variable name="x43,4" index="432" value="0"/>
  <variable name="x43,5" index="433" value="0"/>
  <variable name="x43,6" index="434" value="0"/>
  <variable name="x43,7" index="435" value="1"/>
  <variable name="x43,8" index="436" value="0"/>
  <variable name="x43,9" index="437" value="0"/>
  <variable name="x43,10" index="438" value="0"/>
  <variable name="x44,7" index="439" value="0"/>
  <variable name="x44,8" index="440" value="0"/>
  <variable name="x44,9" index="441" value="1"/>
  <variable name="x44,10" index="442" value="0"/>
  <variable name="x44,11" index="443" value="0"/>
  <variable name="x44,12" index="444" value="0"/>
  <variable name="x44,13" index="445" value="0"/>
  <variable name="x44,14" index="446" value="0"/>
  <variable name="x44,15" index="447" value="0"/>
  <variable name="x45,5" index="448" value="0"/>
  <variable name="x45,6" index="449" value="0"/>
  <variable name="x45,7" index="450" value="1"/>
  <variable name="x45,8" index="451" value="0"/>
  <variable name="x45,9" index="452" value="0"/>
  <variable name="x45,10" index="453" value="0"/>
  <variable name="x45,11" index="454" value="0"/>
  <variable name="x45,12" index="455" value="0"/>
  <variable name="x45,13" index="456" value="0"/>
  <variable name="x46,4" index="457" value="0"/>
  <variable name="x46,5" index="458" value="0"/>
  <variable name="x46,6" index="459" value="1"/>
  <variable name="x46,7" index="460" value="0"/>
  <variable name="x46,8" index="461" value="0"/>
  <variable name="x46,9" index="462" value="0"/>
  <variable name="x46,10" index="463" value="0"/>
  <variable name="x46,11" index="464" value="0"/>
  <variable name="x46,12" index="465" value="0"/>
  <variable name="x47,3" index="466" value="0"/>
  <variable name="x47,4" index="467" value="0"/>
  <variable name="x47,5" index="468" value="1"/>
  <variable name="x47,6" index="469" value="0"/>
  <variable name="x47,7" index="470" value="0"/>
  <variable name="x47,8" index="471" value="0"/>
  <variable name="x47,9" index="472" value="0"/>
  <variable name="x47,10" index="473" value="0"/>
  <variable name="x47,11" index="474" value="0"/>
  <variable name="x48,2" index="475" value="1"/>
  <variable name="x48,3" index="476" value="0"/>
  <variable name="x48,4" index="477" value="0"/>
  <variable name="x48,5" index="478" value="0"/>
  <variable name="x48,6" index="479" value="0"/>
  <variable name="x48,7" index="480" value="0"/>
  <variable name="x48,8" index="481" value="0"/>
  <variable name="x48,9" index="482" value="0"/>
  <variable name="x48,10" index="483" value="0"/>
  <variable name="x49,1" index="484" value="1"/>
  <variable name="x49,2" index="485" value="0"/>
  <variable name="x49,3" index="486" value="0"/>
  <variable name="x49,4" index="487" value="0"/>
  <variable name="x49,5" index="488" value="0"/>
  <variable name="x49,6" index="489" value="0"/>
  <variable name="x49,7" index="490" value="0"/>
  <variable name="x49,8" index="491" value="0"/>
  <variable name="x49,9" index="492" value="0"/>
  <variable name="x50,7" index="493" value="0"/>
  <variable name="x50,8" index="494" value="0"/>
  <variable name="x50,9" index="495" value="0"/>
  <variable name="x50,10" index="496" value="0"/>
  <variable name="x50,11" index="497" value="0"/>
  <variable name="x50,12" index="498" value="0"/>
  <variable name="x50,13" index="499" value="0"/>
  <variable name="x50,14" index="500" value="0"/>
  <variable name="x50,15" index="501" value="1"/>
  <variable name="x51,5" index="502" value="0"/>
  <variable name="x51,6" index="503" value="0"/>
  <variable name="x51,7" index="504" value="0"/>
  <variable name="x51,8" index="505" value="0"/>
  <variable name="x51,9" index="506" value="0"/>
  <variable name="x51,10" index="507" value="0"/>
  <variable name="x51,11" index="508" value="1"/>
  <variable name="x51,12" index="509" value="0"/>
  <variable name="x51,13" index="510" value="0"/>
  <variable name="x52,4" index="511" value="0"/>
  <variable name="x52,5" index="512" value="0"/>
  <variable name="x52,6" index="513" value="0"/>
  <variable name="x52,7" index="514" value="0"/>
  <variable name="x52,8" index="515" value="0"/>
  <variable name="x52,9" index="516" value="0"/>
  <variable name="x52,10" index="517" value="1"/>
  <variable name="x52,11" index="518" value="0"/>
  <variable name="x52,12" index="519" value="0"/>
  <variable name="x53,3" index="520" value="0"/>
  <variable name="x53,4" index="521" value="0"/>
  <variable name="x53,5" index="522" value="0"/>
  <variable name="x53,6" index="523" value="0"/>
  <variable name="x53,7" index="524" value="0"/>
  <variable name="x53,8" index="525" value="0"/>
  <variable name="x53,9" index="526" value="1"/>
  <variable name="x53,10" index="527" value="0"/>
  <variable name="x53,11" index="528" value="0"/>
  <variable name="x54,2" index="529" value="0"/>
  <variable name="x54,3" index="530" value="0"/>
  <variable name="x54,4" index="531" value="0"/>
  <variable name="x54,5" index="532" value="0"/>
  <variable name="x54,6" index="533" value="0"/>
  <variable name="x54,7" index="534" value="1"/>
  <variable name="x54,8" index="535" value="0"/>
  <variable name="x54,9" index="536" value="0"/>
  <variable name="x54,10" index="537" value="0"/>
  <variable name="x55,1" index="538" value="0"/>
  <variable name="x55,2" index="539" value="0"/>
  <variable name="x55,3" index="540" value="0"/>
  <variable name="x55,4" index="541" value="0"/>
  <variable name="x55,5" index="542" value="0"/>
  <variable name="x55,6" index="543" value="1"/>
  <variable name="x55,7" index="544" value="0"/>
  <variable name="x55,8" index="545" value="0"/>
  <variable name="x55,9" index="546" value="0"/>
  <variable name="x0,4" index="547" value="0"/>
  <variable name="x7,4" index="548" value="0"/>
  <variable name="x13,4" index="549" value="0"/>
  <variable name="x19,4" index="550" value="0"/>
  <variable name="x26,4" index="551" value="0"/>
  <variable name="x32,4" index="552" value="0"/>
  <variable name="x38,4" index="553" value="0"/>
  <variable name="x45,4" index="554" value="0"/>
  <variable name="x51,4" index="555" value="0"/>
  <variable name="x26,14" index="556" value="0"/>
  <variable name="x32,14" index="557" value="0"/>
  <variable name="x45,14" index="558" value="0"/>
  <variable name="x51,14" index="559" value="0"/>
  <variable name="x7,15" index="560" value="0"/>
  <variable name="x13,15" index="561" value="0"/>
  <variable name="x19,15" index="562" value="0"/>
  <variable name="x38,15" index="563" value="0"/>
 </variables>
</CPLEXSolution>
